objective value:                                    0
lambda[1,16]*                                       5 	(obj:0)
lambda[1,17]*                                       4 	(obj:0)
lambda[1,18]*                                       1 	(obj:0)
lambda[0,31]*                                       4 	(obj:0)
lambda[0,32]*                                       4 	(obj:0)
lambda[0,34]*                                       2 	(obj:0)
